GLPSOL--GLPK LP/MIP Solver 5.0
Parameter(s) specified in the command line:
 --lp ../modeles/20_294.lp --log 20_294.log
Reading problem data from '../modeles/20_294.lp'...
5961 rows, 11800 columns, 41220 non-zeros
5880 integer variables, all of which are binary
17787 lines were read
GLPK Integer Optimizer 5.0
5961 rows, 11800 columns, 41220 non-zeros
5880 integer variables, all of which are binary
Preprocessing...
5800 constraint coefficient(s) were reduced
5961 rows, 11780 columns, 41200 non-zeros
5880 integer variables, all of which are binary
Scaling...
 A: min|aij| =  1.851e-04  max|aij| =  4.000e+00  ratio =  2.161e+04
GM: min|aij| =  8.248e-02  max|aij| =  1.212e+01  ratio =  1.470e+02
EQ: min|aij| =  6.803e-03  max|aij| =  1.000e+00  ratio =  1.470e+02
2N: min|aij| =  5.923e-03  max|aij| =  1.754e+00  ratio =  2.961e+02
Constructing initial basis...
Size of triangular part is 5961
Solving LP relaxation...
GLPK Simplex Optimizer 5.0
5961 rows, 11780 columns, 41200 non-zeros
      0: obj =   4.000000000e+01 inf =   9.950e+01 (41)
Perturbing LP to avoid stalling [199]...
    379: obj =   9.232175503e-02 inf =   0.000e+00 (0)
Removing LP perturbation [1253]...
*  1253: obj =  -4.470109256e+00 inf =   6.772e-15 (0) 1
OPTIMAL LP SOLUTION FOUND
Integer optimization begins...
Long-step dual simplex will be used
+  1253: mip =     not found yet >=              -inf        (1; 0)
+  1583: mip =     not found yet >=  -4.470109256e+00        (327; 0)
+  1695: >>>>>  -4.470109256e+00 >=  -4.470109256e+00 < 0.1% (437; 0)
+  1695: mip =  -4.470109256e+00 >=     tree is empty   0.0% (0; 873)
INTEGER OPTIMAL SOLUTION FOUND
Time used:   6.5 secs
Memory used: 17.0 Mb (17846874 bytes)
